language ESSENCE' 1.0
$ minion Nodes: 1
$ minion TotalTime: 0.00106
$ Savile Row TotalTime: 0.278
letting s_SetExplicitVarSize_tuple2 be [2, 3, 4;int(1..3)]
letting s_SetExplicitVarSize_tuple1 be [true, true, true;int(1..3)]
